p edge 600 2543
e 1 107
e 1 147
e 1 180
e 1 196
e 1 200
e 1 253
e 1 294
e 1 298
e 1 299
e 1 315
e 1 340
e 1 359
e 1 367
e 1 390
e 1 399
e 1 464
e 1 471
e 1 504
e 1 525
e 1 535
e 1 550
e 1 563
e 1 571
e 1 583
e 1 599
e 2 105
e 2 108
e 2 133
e 2 150
e 2 165
e 2 173
e 2 218
e 2 249
e 2 259
e 2 288
e 2 334
e 2 377
e 2 383
e 2 405
e 2 424
e 2 445
e 2 455
e 2 463
e 2 470
e 2 486
e 2 505
e 2 507
e 2 518
e 2 553
e 2 563
e 2 567
e 2 571
e 3 102
e 3 141
e 3 155
e 3 159
e 3 196
e 3 199
e 3 216
e 3 217
e 3 230
e 3 257
e 3 264
e 3 310
e 3 339
e 3 344
e 3 348
e 3 357
e 3 381
e 3 471
e 3 504
e 3 516
e 3 571
e 3 572
e 3 573
e 3 593
e 4 157
e 4 166
e 4 185
e 4 189
e 4 216
e 4 227
e 4 277
e 4 377
e 4 381
e 4 405
e 4 451
e 4 459
e 4 486
e 4 500
e 4 513
e 4 537
e 4 544
e 4 545
e 4 567
e 4 584
e 5 116
e 5 124
e 5 150
e 5 165
e 5 192
e 5 195
e 5 198
e 5 206
e 5 244
e 5 251
e 5 308
e 5 357
e 5 365
e 5 412
e 5 422
e 5 454
e 5 483
e 5 492
e 5 496
e 5 497
e 5 510
e 5 528
e 5 547
e 5 555
e 6 103
e 6 106
e 6 109
e 6 173
e 6 233
e 6 235
e 6 250
e 6 271
e 6 294
e 6 295
e 6 298
e 6 314
e 6 321
e 6 322
e 6 335
e 6 342
e 6 371
e 6 380
e 6 381
e 6 396
e 6 464
e 6 492
e 6 509
e 6 512
e 6 542
e 6 551
e 6 568
e 7 103
e 7 107
e 7 141
e 7 149
e 7 193
e 7 197
e 7 204
e 7 224
e 7 288
e 7 297
e 7 300
e 7 303
e 7 320
e 7 335
e 7 338
e 7 342
e 7 383
e 7 402
e 7 414
e 7 415
e 7 417
e 7 431
e 7 513
e 8 106
e 8 126
e 8 160
e 8 171
e 8 238
e 8 261
e 8 264
e 8 288
e 8 290
e 8 292
e 8 311
e 8 329
e 8 385
e 8 388
e 8 392
e 8 398
e 8 401
e 8 423
e 8 428
e 8 450
e 8 463
e 8 464
e 8 465
e 8 483
e 8 490
e 8 493
e 8 500
e 8 513
e 8 535
e 8 540
e 8 581
e 8 585
e 8 588
e 8 591
e 9 127
e 9 143
e 9 156
e 9 200
e 9 213
e 9 230
e 9 235
e 9 271
e 9 275
e 9 325
e 9 356
e 9 374
e 9 388
e 9 436
e 9 474
e 9 494
e 9 498
e 9 510
e 9 598
e 10 134
e 10 173
e 10 184
e 10 203
e 10 208
e 10 212
e 10 245
e 10 247
e 10 276
e 10 279
e 10 280
e 10 297
e 10 314
e 10 318
e 10 319
e 10 321
e 10 323
e 10 328
e 10 345
e 10 352
e 10 371
e 10 401
e 10 409
e 10 424
e 10 427
e 10 431
e 10 455
e 10 491
e 10 571
e 10 584
e 11 160
e 11 166
e 11 181
e 11 195
e 11 239
e 11 251
e 11 252
e 11 282
e 11 284
e 11 292
e 11 316
e 11 348
e 11 375
e 11 376
e 11 386
e 11 391
e 11 422
e 11 456
e 11 461
e 11 485
e 11 518
e 11 544
e 11 548
e 11 581
e 12 118
e 12 121
e 12 158
e 12 159
e 12 185
e 12 193
e 12 300
e 12 305
e 12 324
e 12 326
e 12 364
e 12 463
e 12 465
e 12 485
e 12 525
e 12 541
e 12 551
e 12 583
e 12 588
e 12 592
e 13 115
e 13 127
e 13 153
e 13 211
e 13 223
e 13 227
e 13 269
e 13 298
e 13 313
e 13 320
e 13 332
e 13 338
e 13 350
e 13 373
e 13 375
e 13 377
e 13 437
e 13 444
e 13 482
e 13 491
e 13 494
e 13 532
e 13 552
e 14 120
e 14 125
e 14 126
e 14 129
e 14 142
e 14 167
e 14 168
e 14 178
e 14 231
e 14 240
e 14 259
e 14 282
e 14 293
e 14 318
e 14 359
e 14 442
e 14 446
e 14 448
e 14 462
e 14 513
e 14 537
e 14 545
e 14 555
e 14 568
e 14 574
e 14 580
e 15 112
e 15 142
e 15 179
e 15 181
e 15 227
e 15 230
e 15 252
e 15 263
e 15 316
e 15 353
e 15 359
e 15 379
e 15 384
e 15 396
e 15 397
e 15 423
e 15 495
e 15 515
e 15 555
e 15 564
e 15 569
e 15 579
e 16 114
e 16 129
e 16 142
e 16 153
e 16 157
e 16 237
e 16 245
e 16 274
e 16 276
e 16 284
e 16 293
e 16 314
e 16 332
e 16 351
e 16 357
e 16 360
e 16 370
e 16 379
e 16 395
e 16 408
e 16 413
e 16 431
e 16 474
e 16 502
e 16 543
e 16 549
e 16 569
e 16 576
e 16 584
e 16 588
e 16 589
e 16 593
e 17 115
e 17 136
e 17 144
e 17 149
e 17 152
e 17 169
e 17 174
e 17 190
e 17 218
e 17 226
e 17 242
e 17 283
e 17 284
e 17 319
e 17 328
e 17 345
e 17 391
e 17 416
e 17 429
e 17 438
e 17 477
e 17 490
e 17 531
e 17 554
e 17 562
e 17 589
e 18 113
e 18 116
e 18 122
e 18 130
e 18 135
e 18 148
e 18 160
e 18 172
e 18 229
e 18 233
e 18 256
e 18 257
e 18 281
e 18 282
e 18 310
e 18 325
e 18 338
e 18 349
e 18 353
e 18 356
e 18 371
e 18 406
e 18 412
e 18 417
e 18 424
e 18 548
e 18 558
e 18 566
e 18 599
e 19 105
e 19 113
e 19 133
e 19 143
e 19 220
e 19 239
e 19 240
e 19 246
e 19 267
e 19 279
e 19 299
e 19 326
e 19 331
e 19 337
e 19 359
e 19 372
e 19 390
e 19 480
e 19 495
e 19 513
e 19 523
e 19 567
e 19 584
e 20 122
e 20 124
e 20 139
e 20 156
e 20 162
e 20 212
e 20 282
e 20 286
e 20 288
e 20 289
e 20 309
e 20 315
e 20 366
e 20 374
e 20 377
e 20 383
e 20 432
e 20 444
e 20 501
e 20 532
e 20 557
e 20 584
e 20 598
e 21 108
e 21 179
e 21 207
e 21 228
e 21 264
e 21 292
e 21 301
e 21 305
e 21 314
e 21 318
e 21 364
e 21 394
e 21 471
e 21 491
e 21 499
e 21 500
e 21 507
e 21 514
e 21 520
e 21 537
e 21 550
e 21 560
e 21 567
e 21 591
e 21 594
e 22 124
e 22 131
e 22 149
e 22 190
e 22 200
e 22 206
e 22 212
e 22 216
e 22 235
e 22 243
e 22 254
e 22 265
e 22 277
e 22 278
e 22 292
e 22 354
e 22 369
e 22 374
e 22 376
e 22 378
e 22 380
e 22 438
e 22 472
e 22 480
e 22 494
e 22 496
e 22 528
e 22 557
e 22 562
e 22 568
e 23 129
e 23 136
e 23 152
e 23 168
e 23 179
e 23 209
e 23 234
e 23 239
e 23 310
e 23 313
e 23 330
e 23 331
e 23 362
e 23 398
e 23 405
e 23 430
e 23 431
e 23 456
e 23 498
e 23 516
e 23 533
e 23 551
e 23 555
e 23 560
e 23 571
e 23 579
e 24 112
e 24 115
e 24 146
e 24 147
e 24 190
e 24 192
e 24 215
e 24 217
e 24 226
e 24 244
e 24 267
e 24 276
e 24 309
e 24 351
e 24 400
e 24 403
e 24 410
e 24 418
e 24 426
e 24 446
e 24 455
e 24 474
e 24 478
e 24 487
e 24 521
e 24 532
e 24 545
e 24 564
e 25 133
e 25 155
e 25 163
e 25 164
e 25 194
e 25 206
e 25 229
e 25 239
e 25 294
e 25 296
e 25 300
e 25 318
e 25 345
e 25 373
e 25 383
e 25 426
e 25 428
e 25 463
e 25 464
e 25 479
e 25 501
e 25 558
e 25 565
e 25 588
e 26 131
e 26 175
e 26 182
e 26 196
e 26 204
e 26 224
e 26 230
e 26 242
e 26 275
e 26 287
e 26 293
e 26 297
e 26 301
e 26 327
e 26 351
e 26 355
e 26 357
e 26 367
e 26 394
e 26 430
e 26 445
e 26 448
e 26 492
e 26 508
e 26 516
e 26 521
e 26 524
e 26 534
e 26 541
e 26 568
e 27 112
e 27 135
e 27 156
e 27 175
e 27 201
e 27 203
e 27 204
e 27 206
e 27 264
e 27 269
e 27 276
e 27 299
e 27 307
e 27 332
e 27 333
e 27 359
e 27 422
e 27 451
e 27 460
e 27 487
e 27 492
e 27 511
e 27 528
e 27 530
e 27 560
e 27 593
e 28 110
e 28 163
e 28 169
e 28 178
e 28 187
e 28 215
e 28 238
e 28 258
e 28 375
e 28 377
e 28 383
e 28 396
e 28 416
e 28 448
e 28 454
e 28 486
e 28 497
e 28 499
e 28 500
e 28 514
e 28 522
e 28 533
e 28 534
e 28 562
e 29 122
e 29 127
e 29 192
e 29 194
e 29 198
e 29 266
e 29 283
e 29 329
e 29 336
e 29 342
e 29 359
e 29 365
e 29 385
e 29 392
e 29 399
e 29 446
e 29 464
e 29 478
e 29 500
e 29 503
e 29 505
e 29 519
e 29 522
e 29 536
e 29 576
e 29 591
e 29 592
e 30 102
e 30 105
e 30 125
e 30 144
e 30 156
e 30 169
e 30 206
e 30 232
e 30 250
e 30 311
e 30 323
e 30 324
e 30 357
e 30 362
e 30 379
e 30 398
e 30 407
e 30 412
e 30 416
e 30 425
e 30 440
e 30 451
e 30 461
e 30 477
e 30 497
e 30 508
e 30 543
e 30 553
e 30 570
e 30 582
e 30 594
e 30 598
e 31 103
e 31 108
e 31 121
e 31 128
e 31 133
e 31 139
e 31 141
e 31 154
e 31 188
e 31 204
e 31 255
e 31 262
e 31 276
e 31 284
e 31 302
e 31 399
e 31 449
e 31 452
e 31 453
e 31 455
e 31 519
e 31 592
e 32 108
e 32 111
e 32 132
e 32 145
e 32 181
e 32 184
e 32 185
e 32 194
e 32 200
e 32 219
e 32 223
e 32 251
e 32 269
e 32 306
e 32 313
e 32 316
e 32 318
e 32 338
e 32 399
e 32 413
e 32 429
e 32 438
e 32 439
e 32 508
e 32 537
e 32 568
e 32 575
e 32 578
e 32 582
e 33 106
e 33 137
e 33 144
e 33 179
e 33 181
e 33 182
e 33 183
e 33 186
e 33 191
e 33 202
e 33 216
e 33 240
e 33 259
e 33 321
e 33 324
e 33 403
e 33 419
e 33 473
e 33 519
e 33 529
e 33 532
e 33 552
e 33 579
e 33 589
e 34 130
e 34 137
e 34 138
e 34 150
e 34 151
e 34 193
e 34 203
e 34 209
e 34 210
e 34 212
e 34 269
e 34 275
e 34 277
e 34 288
e 34 289
e 34 327
e 34 371
e 34 372
e 34 407
e 34 449
e 34 453
e 34 483
e 34 492
e 34 528
e 34 529
e 34 551
e 34 563
e 34 566
e 34 578
e 34 594
e 35 107
e 35 117
e 35 129
e 35 148
e 35 160
e 35 184
e 35 199
e 35 220
e 35 260
e 35 285
e 35 289
e 35 305
e 35 332
e 35 340
e 35 375
e 35 383
e 35 398
e 35 402
e 35 414
e 35 433
e 35 463
e 35 467
e 35 482
e 35 491
e 35 498
e 35 505
e 35 534
e 35 548
e 35 594
e 36 124
e 36 125
e 36 133
e 36 177
e 36 202
e 36 204
e 36 221
e 36 234
e 36 268
e 36 368
e 36 375
e 36 379
e 36 386
e 36 392
e 36 417
e 36 434
e 36 461
e 36 488
e 36 496
e 36 536
e 36 548
e 37 107
e 37 122
e 37 171
e 37 198
e 37 203
e 37 222
e 37 223
e 37 229
e 37 272
e 37 286
e 37 301
e 37 347
e 37 362
e 37 418
e 37 451
e 37 488
e 37 497
e 37 510
e 37 511
e 37 597
e 38 126
e 38 127
e 38 166
e 38 173
e 38 174
e 38 244
e 38 255
e 38 265
e 38 286
e 38 331
e 38 366
e 38 382
e 38 384
e 38 385
e 38 389
e 38 398
e 38 409
e 38 421
e 38 422
e 38 427
e 38 454
e 38 489
e 39 115
e 39 164
e 39 186
e 39 231
e 39 302
e 39 323
e 39 393
e 39 402
e 39 406
e 39 427
e 39 491
e 39 492
e 39 505
e 39 513
e 39 532
e 39 537
e 39 560
e 39 562
e 39 566
e 40 102
e 40 111
e 40 127
e 40 130
e 40 161
e 40 177
e 40 189
e 40 267
e 40 288
e 40 301
e 40 307
e 40 312
e 40 318
e 40 332
e 40 345
e 40 367
e 40 426
e 40 428
e 40 434
e 40 443
e 40 444
e 40 453
e 40 463
e 40 480
e 40 506
e 40 511
e 40 520
e 40 521
e 40 522
e 40 526
e 40 539
e 40 563
e 40 589
e 40 590
e 41 196
e 41 209
e 41 216
e 41 252
e 41 289
e 41 327
e 41 408
e 41 417
e 41 438
e 41 446
e 41 452
e 41 460
e 41 481
e 41 482
e 41 483
e 41 485
e 41 492
e 41 500
e 41 512
e 41 582
e 42 117
e 42 124
e 42 233
e 42 247
e 42 272
e 42 298
e 42 310
e 42 312
e 42 316
e 42 321
e 42 322
e 42 368
e 42 375
e 42 400
e 42 401
e 42 426
e 42 442
e 42 457
e 42 462
e 42 468
e 42 507
e 42 571
e 42 587
e 42 590
e 43 144
e 43 231
e 43 249
e 43 282
e 43 284
e 43 287
e 43 293
e 43 310
e 43 330
e 43 340
e 43 341
e 43 350
e 43 424
e 43 457
e 43 462
e 43 496
e 43 500
e 43 502
e 43 507
e 43 509
e 43 562
e 43 566
e 43 575
e 43 596
e 44 134
e 44 165
e 44 192
e 44 194
e 44 196
e 44 209
e 44 246
e 44 263
e 44 283
e 44 309
e 44 313
e 44 318
e 44 340
e 44 348
e 44 361
e 44 366
e 44 414
e 44 419
e 44 439
e 44 569
e 44 594
e 44 597
e 45 121
e 45 171
e 45 183
e 45 193
e 45 217
e 45 236
e 45 307
e 45 330
e 45 389
e 45 394
e 45 396
e 45 403
e 45 408
e 45 430
e 45 433
e 45 460
e 45 466
e 45 471
e 45 481
e 45 487
e 45 494
e 45 515
e 45 540
e 45 544
e 45 572
e 45 576
e 45 588
e 45 591
e 45 599
e 46 105
e 46 108
e 46 115
e 46 135
e 46 152
e 46 198
e 46 204
e 46 240
e 46 248
e 46 254
e 46 292
e 46 312
e 46 316
e 46 319
e 46 334
e 46 338
e 46 398
e 46 408
e 46 427
e 46 434
e 46 462
e 46 468
e 46 508
e 46 521
e 46 526
e 46 543
e 46 549
e 46 563
e 46 569
e 47 112
e 47 118
e 47 130
e 47 150
e 47 173
e 47 176
e 47 182
e 47 183
e 47 184
e 47 189
e 47 212
e 47 234
e 47 242
e 47 283
e 47 286
e 47 295
e 47 306
e 47 326
e 47 403
e 47 420
e 47 428
e 47 517
e 47 562
e 47 590
e 48 125
e 48 183
e 48 199
e 48 230
e 48 238
e 48 297
e 48 327
e 48 349
e 48 352
e 48 380
e 48 393
e 48 402
e 48 441
e 48 446
e 48 494
e 48 503
e 48 579
e 48 592
e 48 593
e 49 104
e 49 128
e 49 160
e 49 199
e 49 206
e 49 223
e 49 254
e 49 280
e 49 305
e 49 309
e 49 331
e 49 335
e 49 362
e 49 365
e 49 375
e 49 395
e 49 398
e 49 419
e 49 421
e 49 471
e 49 498
e 49 513
e 49 532
e 49 559
e 50 108
e 50 111
e 50 125
e 50 141
e 50 187
e 50 260
e 50 340
e 50 360
e 50 402
e 50 412
e 50 439
e 50 446
e 50 464
e 50 502
e 50 571
e 50 600
e 51 120
e 51 129
e 51 236
e 51 252
e 51 266
e 51 305
e 51 316
e 51 326
e 51 334
e 51 385
e 51 393
e 51 406
e 51 435
e 51 441
e 51 458
e 51 485
e 51 518
e 51 520
e 51 533
e 51 559
e 51 560
e 51 595
e 51 597
e 52 139
e 52 172
e 52 174
e 52 220
e 52 222
e 52 242
e 52 247
e 52 263
e 52 274
e 52 285
e 52 311
e 52 337
e 52 338
e 52 339
e 52 343
e 52 376
e 52 405
e 52 419
e 52 459
e 52 474
e 52 507
e 52 511
e 52 521
e 52 530
e 52 542
e 52 549
e 52 594
e 52 597
e 53 105
e 53 117
e 53 132
e 53 137
e 53 138
e 53 146
e 53 147
e 53 164
e 53 183
e 53 204
e 53 215
e 53 264
e 53 267
e 53 285
e 53 308
e 53 309
e 53 326
e 53 342
e 53 360
e 53 435
e 53 437
e 53 447
e 53 451
e 53 491
e 53 492
e 53 520
e 53 535
e 53 588
e 53 589
e 53 594
e 54 117
e 54 127
e 54 145
e 54 182
e 54 220
e 54 230
e 54 253
e 54 270
e 54 299
e 54 306
e 54 311
e 54 320
e 54 325
e 54 363
e 54 367
e 54 372
e 54 385
e 54 386
e 54 394
e 54 399
e 54 491
e 54 511
e 54 512
e 54 528
e 54 529
e 54 581
e 55 101
e 55 138
e 55 184
e 55 193
e 55 213
e 55 246
e 55 250
e 55 255
e 55 266
e 55 272
e 55 284
e 55 299
e 55 300
e 55 317
e 55 343
e 55 363
e 55 382
e 55 386
e 55 416
e 55 420
e 55 427
e 55 446
e 55 462
e 55 476
e 55 591
e 56 116
e 56 124
e 56 134
e 56 156
e 56 168
e 56 181
e 56 200
e 56 240
e 56 249
e 56 267
e 56 277
e 56 326
e 56 330
e 56 340
e 56 352
e 56 359
e 56 367
e 56 375
e 56 383
e 56 421
e 56 459
e 56 519
e 56 530
e 56 544
e 56 552
e 56 585
e 57 131
e 57 134
e 57 185
e 57 187
e 57 194
e 57 202
e 57 248
e 57 260
e 57 274
e 57 294
e 57 296
e 57 307
e 57 310
e 57 311
e 57 315
e 57 342
e 57 378
e 57 381
e 57 384
e 57 388
e 57 396
e 57 416
e 57 439
e 57 457
e 57 465
e 57 496
e 57 505
e 57 541
e 57 566
e 57 573
e 57 579
e 57 587
e 57 589
e 57 594
e 58 107
e 58 109
e 58 123
e 58 130
e 58 287
e 58 294
e 58 362
e 58 377
e 58 430
e 58 440
e 58 446
e 58 464
e 58 478
e 58 486
e 58 529
e 58 554
e 58 573
e 59 109
e 59 141
e 59 152
e 59 179
e 59 186
e 59 191
e 59 211
e 59 214
e 59 284
e 59 289
e 59 296
e 59 299
e 59 313
e 59 330
e 59 355
e 59 370
e 59 386
e 59 387
e 59 392
e 59 410
e 59 418
e 59 423
e 59 436
e 59 443
e 59 453
e 59 454
e 59 457
e 59 469
e 59 500
e 59 511
e 59 573
e 59 581
e 59 583
e 59 590
e 60 114
e 60 143
e 60 144
e 60 193
e 60 207
e 60 208
e 60 242
e 60 257
e 60 291
e 60 311
e 60 322
e 60 366
e 60 383
e 60 399
e 60 407
e 60 416
e 60 429
e 60 441
e 60 474
e 60 499
e 60 503
e 60 517
e 60 558
e 60 588
e 60 593
e 61 118
e 61 132
e 61 169
e 61 201
e 61 206
e 61 215
e 61 217
e 61 218
e 61 247
e 61 279
e 61 299
e 61 305
e 61 343
e 61 359
e 61 373
e 61 393
e 61 404
e 61 432
e 61 507
e 61 518
e 61 572
e 61 587
e 61 591
e 62 104
e 62 109
e 62 131
e 62 143
e 62 158
e 62 165
e 62 183
e 62 199
e 62 204
e 62 206
e 62 223
e 62 252
e 62 262
e 62 332
e 62 344
e 62 349
e 62 361
e 62 373
e 62 374
e 62 375
e 62 398
e 62 411
e 62 416
e 62 420
e 62 436
e 62 486
e 62 493
e 62 505
e 62 510
e 62 521
e 62 531
e 62 543
e 62 558
e 62 580
e 62 599
e 63 110
e 63 117
e 63 125
e 63 140
e 63 219
e 63 234
e 63 266
e 63 273
e 63 281
e 63 297
e 63 308
e 63 325
e 63 329
e 63 346
e 63 352
e 63 383
e 63 404
e 63 426
e 63 431
e 63 447
e 63 464
e 63 480
e 63 485
e 63 504
e 63 508
e 63 525
e 63 591
e 64 116
e 64 141
e 64 145
e 64 154
e 64 169
e 64 183
e 64 184
e 64 190
e 64 254
e 64 305
e 64 316
e 64 340
e 64 363
e 64 387
e 64 392
e 64 415
e 64 423
e 64 442
e 64 483
e 64 491
e 64 550
e 64 552
e 64 564
e 65 143
e 65 157
e 65 213
e 65 232
e 65 249
e 65 287
e 65 294
e 65 297
e 65 305
e 65 404
e 65 440
e 65 458
e 65 460
e 65 470
e 65 479
e 65 498
e 65 531
e 65 557
e 65 589
e 65 596
e 66 103
e 66 120
e 66 135
e 66 160
e 66 180
e 66 195
e 66 213
e 66 247
e 66 261
e 66 284
e 66 289
e 66 304
e 66 319
e 66 321
e 66 331
e 66 342
e 66 358
e 66 363
e 66 377
e 66 387
e 66 398
e 66 400
e 66 430
e 66 445
e 66 450
e 66 551
e 66 598
e 67 105
e 67 107
e 67 171
e 67 177
e 67 186
e 67 191
e 67 249
e 67 291
e 67 302
e 67 390
e 67 412
e 67 422
e 67 449
e 67 467
e 67 478
e 67 499
e 67 542
e 67 547
e 67 553
e 67 580
e 68 104
e 68 161
e 68 168
e 68 170
e 68 231
e 68 235
e 68 239
e 68 253
e 68 298
e 68 301
e 68 308
e 68 316
e 68 348
e 68 368
e 68 378
e 68 393
e 68 429
e 68 432
e 68 444
e 68 485
e 68 494
e 68 510
e 68 516
e 68 527
e 68 540
e 68 572
e 68 590
e 69 121
e 69 126
e 69 152
e 69 196
e 69 236
e 69 243
e 69 260
e 69 265
e 69 374
e 69 384
e 69 415
e 69 464
e 69 487
e 69 491
e 69 538
e 69 543
e 69 555
e 69 578
e 69 596
e 69 600
e 70 113
e 70 131
e 70 171
e 70 179
e 70 191
e 70 215
e 70 222
e 70 235
e 70 266
e 70 274
e 70 281
e 70 285
e 70 310
e 70 311
e 70 320
e 70 332
e 70 385
e 70 388
e 70 401
e 70 418
e 70 422
e 70 436
e 70 443
e 70 481
e 70 518
e 70 532
e 70 555
e 70 572
e 70 580
e 70 599
e 71 123
e 71 159
e 71 170
e 71 205
e 71 220
e 71 231
e 71 250
e 71 252
e 71 269
e 71 300
e 71 383
e 71 387
e 71 397
e 71 404
e 71 416
e 71 432
e 71 461
e 71 469
e 71 484
e 71 494
e 71 510
e 71 513
e 71 516
e 71 551
e 71 569
e 72 126
e 72 129
e 72 134
e 72 170
e 72 173
e 72 177
e 72 183
e 72 188
e 72 195
e 72 223
e 72 228
e 72 233
e 72 241
e 72 266
e 72 267
e 72 269
e 72 297
e 72 300
e 72 369
e 72 409
e 72 410
e 72 462
e 72 471
e 72 481
e 72 496
e 72 593
e 73 103
e 73 104
e 73 106
e 73 116
e 73 154
e 73 177
e 73 181
e 73 185
e 73 194
e 73 204
e 73 224
e 73 226
e 73 263
e 73 289
e 73 309
e 73 314
e 73 363
e 73 380
e 73 381
e 73 394
e 73 398
e 73 420
e 73 424
e 73 438
e 73 445
e 73 451
e 73 492
e 73 530
e 73 556
e 74 102
e 74 127
e 74 128
e 74 167
e 74 172
e 74 191
e 74 219
e 74 240
e 74 246
e 74 249
e 74 305
e 74 313
e 74 318
e 74 335
e 74 337
e 74 359
e 74 380
e 74 408
e 74 409
e 74 412
e 74 430
e 74 445
e 74 460
e 74 532
e 74 534
e 74 551
e 74 552
e 74 556
e 74 561
e 74 588
e 74 590
e 75 123
e 75 227
e 75 235
e 75 244
e 75 245
e 75 265
e 75 282
e 75 283
e 75 320
e 75 383
e 75 384
e 75 417
e 75 420
e 75 451
e 75 472
e 75 492
e 75 516
e 75 523
e 75 538
e 75 549
e 75 586
e 76 107
e 76 123
e 76 127
e 76 149
e 76 191
e 76 209
e 76 224
e 76 249
e 76 280
e 76 283
e 76 316
e 76 320
e 76 324
e 76 372
e 76 377
e 76 386
e 76 407
e 76 431
e 76 473
e 76 525
e 76 539
e 76 549
e 76 554
e 76 567
e 76 574
e 76 589
e 76 598
e 77 104
e 77 105
e 77 112
e 77 123
e 77 156
e 77 182
e 77 200
e 77 231
e 77 245
e 77 265
e 77 267
e 77 269
e 77 294
e 77 301
e 77 365
e 77 380
e 77 403
e 77 443
e 77 446
e 77 459
e 77 487
e 77 488
e 77 507
e 77 511
e 77 533
e 77 553
e 77 584
e 77 591
e 78 109
e 78 130
e 78 138
e 78 145
e 78 156
e 78 215
e 78 225
e 78 255
e 78 309
e 78 326
e 78 330
e 78 371
e 78 398
e 78 419
e 78 427
e 78 433
e 78 434
e 78 439
e 78 491
e 78 522
e 78 555
e 78 557
e 78 559
e 78 560
e 78 575
e 78 580
e 79 120
e 79 160
e 79 174
e 79 197
e 79 199
e 79 265
e 79 298
e 79 303
e 79 340
e 79 357
e 79 391
e 79 487
e 79 495
e 79 497
e 79 508
e 79 511
e 79 516
e 79 579
e 80 108
e 80 113
e 80 165
e 80 187
e 80 207
e 80 230
e 80 239
e 80 253
e 80 276
e 80 313
e 80 352
e 80 375
e 80 381
e 80 400
e 80 411
e 80 428
e 80 442
e 80 447
e 80 459
e 80 460
e 80 466
e 80 485
e 80 510
e 80 516
e 80 522
e 80 570
e 81 109
e 81 129
e 81 132
e 81 151
e 81 157
e 81 172
e 81 197
e 81 215
e 81 289
e 81 354
e 81 379
e 81 388
e 81 396
e 81 397
e 81 405
e 81 407
e 81 421
e 81 430
e 81 443
e 81 462
e 81 477
e 81 495
e 81 514
e 81 544
e 81 559
e 81 569
e 81 593
e 82 101
e 82 132
e 82 181
e 82 195
e 82 202
e 82 210
e 82 220
e 82 229
e 82 239
e 82 250
e 82 253
e 82 254
e 82 271
e 82 309
e 82 342
e 82 360
e 82 445
e 82 450
e 82 457
e 82 477
e 82 539
e 82 560
e 82 579
e 82 581
e 83 113
e 83 125
e 83 146
e 83 152
e 83 183
e 83 185
e 83 193
e 83 209
e 83 222
e 83 258
e 83 296
e 83 332
e 83 363
e 83 387
e 83 391
e 83 449
e 83 477
e 83 487
e 83 493
e 83 498
e 83 514
e 83 520
e 83 568
e 83 575
e 83 583
e 84 113
e 84 125
e 84 201
e 84 207
e 84 217
e 84 245
e 84 265
e 84 370
e 84 389
e 84 397
e 84 405
e 84 424
e 84 442
e 84 443
e 84 460
e 84 514
e 84 522
e 84 525
e 84 544
e 84 552
e 84 586
e 84 594
e 85 113
e 85 125
e 85 131
e 85 174
e 85 193
e 85 210
e 85 247
e 85 251
e 85 266
e 85 292
e 85 313
e 85 339
e 85 343
e 85 347
e 85 415
e 85 428
e 85 474
e 85 478
e 85 508
e 85 513
e 85 516
e 85 534
e 85 580
e 85 587
e 86 102
e 86 122
e 86 161
e 86 171
e 86 173
e 86 224
e 86 233
e 86 264
e 86 275
e 86 302
e 86 317
e 86 394
e 86 421
e 86 440
e 86 451
e 86 460
e 86 463
e 86 475
e 86 484
e 86 498
e 86 501
e 86 507
e 86 537
e 86 572
e 87 147
e 87 172
e 87 184
e 87 241
e 87 248
e 87 259
e 87 269
e 87 288
e 87 296
e 87 299
e 87 340
e 87 352
e 87 358
e 87 419
e 87 429
e 87 448
e 87 458
e 87 508
e 87 542
e 87 546
e 87 549
e 87 569
e 88 103
e 88 126
e 88 138
e 88 149
e 88 151
e 88 208
e 88 209
e 88 219
e 88 222
e 88 234
e 88 262
e 88 265
e 88 289
e 88 306
e 88 323
e 88 335
e 88 350
e 88 359
e 88 387
e 88 391
e 88 407
e 88 434
e 88 486
e 88 489
e 88 500
e 88 506
e 88 511
e 88 525
e 88 586
e 89 107
e 89 113
e 89 114
e 89 119
e 89 136
e 89 156
e 89 169
e 89 255
e 89 285
e 89 292
e 89 310
e 89 316
e 89 335
e 89 341
e 89 345
e 89 370
e 89 376
e 89 421
e 89 437
e 89 441
e 89 448
e 89 449
e 89 459
e 89 501
e 89 551
e 90 111
e 90 135
e 90 136
e 90 148
e 90 181
e 90 185
e 90 225
e 90 237
e 90 295
e 90 302
e 90 305
e 90 308
e 90 317
e 90 362
e 90 368
e 90 371
e 90 378
e 90 399
e 90 402
e 90 414
e 90 418
e 90 434
e 90 464
e 90 506
e 90 512
e 90 514
e 90 553
e 90 562
e 90 567
e 90 571
e 90 584
e 91 115
e 91 142
e 91 172
e 91 203
e 91 239
e 91 241
e 91 253
e 91 292
e 91 298
e 91 311
e 91 335
e 91 365
e 91 414
e 91 440
e 91 457
e 91 463
e 91 465
e 91 469
e 91 474
e 91 509
e 91 517
e 91 521
e 91 527
e 91 535
e 91 583
e 92 124
e 92 140
e 92 156
e 92 171
e 92 174
e 92 192
e 92 206
e 92 228
e 92 237
e 92 255
e 92 294
e 92 302
e 92 312
e 92 321
e 92 367
e 92 481
e 92 520
e 92 578
e 92 588
e 93 105
e 93 107
e 93 114
e 93 140
e 93 163
e 93 178
e 93 181
e 93 218
e 93 262
e 93 277
e 93 280
e 93 290
e 93 306
e 93 313
e 93 351
e 93 352
e 93 390
e 93 408
e 93 417
e 93 431
e 93 480
e 93 486
e 93 496
e 93 524
e 93 533
e 93 570
e 93 574
e 94 115
e 94 148
e 94 164
e 94 174
e 94 217
e 94 248
e 94 263
e 94 272
e 94 286
e 94 315
e 94 351
e 94 398
e 94 447
e 94 465
e 94 489
e 94 496
e 94 527
e 94 529
e 94 556
e 94 558
e 94 579
e 94 594
e 95 105
e 95 116
e 95 140
e 95 161
e 95 202
e 95 236
e 95 255
e 95 258
e 95 268
e 95 281
e 95 291
e 95 314
e 95 339
e 95 355
e 95 357
e 95 400
e 95 495
e 95 498
e 95 506
e 95 522
e 95 523
e 95 548
e 95 576
e 95 579
e 95 584
e 96 156
e 96 178
e 96 226
e 96 231
e 96 233
e 96 244
e 96 256
e 96 258
e 96 265
e 96 282
e 96 291
e 96 301
e 96 305
e 96 317
e 96 320
e 96 332
e 96 340
e 96 378
e 96 384
e 96 387
e 96 388
e 96 394
e 96 430
e 96 465
e 96 476
e 96 477
e 96 501
e 96 512
e 96 580
e 96 582
e 97 134
e 97 184
e 97 187
e 97 192
e 97 222
e 97 232
e 97 246
e 97 268
e 97 300
e 97 310
e 97 313
e 97 321
e 97 332
e 97 342
e 97 382
e 97 414
e 97 419
e 97 427
e 97 490
e 97 509
e 97 510
e 97 538
e 97 585
e 97 594
e 98 109
e 98 117
e 98 122
e 98 160
e 98 164
e 98 173
e 98 182
e 98 207
e 98 215
e 98 225
e 98 229
e 98 239
e 98 256
e 98 274
e 98 277
e 98 283
e 98 291
e 98 328
e 98 344
e 98 359
e 98 378
e 98 382
e 98 391
e 98 392
e 98 393
e 98 423
e 98 486
e 98 489
e 98 528
e 98 556
e 98 566
e 98 569
e 98 580
e 98 597
e 99 144
e 99 163
e 99 169
e 99 184
e 99 194
e 99 235
e 99 247
e 99 257
e 99 271
e 99 281
e 99 283
e 99 301
e 99 315
e 99 329
e 99 403
e 99 420
e 99 434
e 99 445
e 99 448
e 99 459
e 99 494
e 99 510
e 99 516
e 99 544
e 99 570
e 99 597
e 100 116
e 100 122
e 100 135
e 100 151
e 100 156
e 100 167
e 100 178
e 100 198
e 100 213
e 100 223
e 100 232
e 100 320
e 100 371
e 100 373
e 100 386
e 100 395
e 100 410
e 100 413
e 100 426
e 100 481
e 100 489
e 100 534
e 100 550
e 100 576
e 100 586
e 100 590
e 100 591
